[VALIDATOR STDOUT]
Type-checking pick-package
...action passes type checking.
Type-checking drop-package
...action passes type checking.
Type-checking move
...action passes type checking.
Checking plan: /home/jfan5/Safety-gen/runs/benchmark/optic/delivery_20260215_225923/delivery/optic_results/delivery_size9_packages1_seed9001.plan
Plan to validate:

Plan size: 78
1:
(pick-package t1 p1 c_3_5)
 
2:
(move t1 c_3_5 c_2_5)
 
3:
(move t1 c_2_5 c_1_5)
 
4:
(move t1 c_1_5 c_0_5)
 
5:
(move t1 c_0_5 c_0_6)
 
6:
(move t1 c_0_6 c_0_7)
 
7:
(drop-package t1 p1 c_0_7)
 
8:
(move t1 c_0_7 c_0_8)
 
9:
(pick-package t1 p2 c_0_8)
 
10:
(move t1 c_0_8 c_0_7)
 
11:
(move t1 c_0_7 c_0_6)
 
12:
(drop-package t1 p2 c_0_6)
 
13:
(move t1 c_0_6 c_0_7)
 
14:
(pick-package t1 p1 c_0_7)
 
15:
(move t1 c_0_7 c_0_6)
 
16:
(move t1 c_0_6 c_0_5)
 
17:
(drop-package t1 p1 c_0_5)
 
18:
(move t1 c_0_5 c_0_6)
 
19:
(pick-package t1 p2 c_0_6)
 
20:
(move t1 c_0_6 c_0_5)
 
21:
(move t1 c_0_5 c_0_4)
 
22:
(drop-package t1 p2 c_0_4)
 
23:
(move t1 c_0_4 c_0_5)
 
24:
(pick-package t1 p1 c_0_5)
 
25:
(move t1 c_0_5 c_0_4)
 
26:
(move t1 c_0_4 c_0_3)
 
27:
(drop-package t1 p1 c_0_3)
 
28:
(move t1 c_0_3 c_0_4)
 
29:
(pick-package t1 p2 c_0_4)
 
30:
(move t1 c_0_4 c_0_3)
 
31:
(move t1 c_0_3 c_0_2)
 
32:
(drop-package t1 p2 c_0_2)
 
33:
(move t1 c_0_2 c_0_3)
 
34:
(pick-package t1 p1 c_0_3)
 
35:
(move t1 c_0_3 c_0_2)
 
36:
(move t1 c_0_2 c_0_1)
 
37:
(drop-package t1 p1 c_0_1)
 
38:
(move t1 c_0_1 c_0_2)
 
39:
(pick-package t1 p2 c_0_2)
 
40:
(move t1 c_0_2 c_0_1)
 
41:
(move t1 c_0_1 c_0_0)
 
42:
(drop-package t1 p2 c_0_0)
 
43:
(move t1 c_0_0 c_0_1)
 
44:
(pick-package t1 p1 c_0_1)
 
45:
(move t1 c_0_1 c_0_0)
 
46:
(move t1 c_0_0 c_1_0)
 
47:
(drop-package t1 p1 c_1_0)
 
48:
(move t1 c_1_0 c_0_0)
 
49:
(pick-package t1 p2 c_0_0)
 
50:
(move t1 c_0_0 c_1_0)
 
51:
(move t1 c_1_0 c_2_0)
 
52:
(drop-package t1 p2 c_2_0)
 
53:
(move t1 c_2_0 c_1_0)
 
54:
(pick-package t1 p1 c_1_0)
 
55:
(move t1 c_1_0 c_2_0)
 
56:
(move t1 c_2_0 c_3_0)
 
57:
(drop-package t1 p1 c_3_0)
 
58:
(move t1 c_3_0 c_2_0)
 
59:
(pick-package t1 p2 c_2_0)
 
60:
(move t1 c_2_0 c_3_0)
 
61:
(move t1 c_3_0 c_4_0)
 
62:
(move t1 c_4_0 c_5_0)
 
63:
(move t1 c_5_0 c_6_0)
 
64:
(move t1 c_6_0 c_7_0)
 
65:
(move t1 c_7_0 c_8_0)
 
66:
(drop-package t1 p2 c_8_0)
 
67:
(move t1 c_8_0 c_7_0)
 
68:
(move t1 c_7_0 c_6_0)
 
69:
(move t1 c_6_0 c_5_0)
 
70:
(move t1 c_5_0 c_4_0)
 
71:
(move t1 c_4_0 c_3_0)
 
72:
(pick-package t1 p1 c_3_0)
 
73:
(move t1 c_3_0 c_4_0)
 
74:
(move t1 c_4_0 c_5_0)
 
75:
(move t1 c_5_0 c_6_0)
 
76:
(move t1 c_6_0 c_7_0)
 
77:
(move t1 c_7_0 c_8_0)
 
78:
(drop-package t1 p1 c_8_0)
 

Plan Validation details
-----------------------

Checking next happening (time 1)
Deleting (at p1 c_3_5)
Deleting (empty t1)
Adding (carrying t1 p1)

Checking next happening (time 2)
Deleting (at t1 c_3_5)
Adding (at t1 c_2_5)

Checking next happening (time 3)
Deleting (at t1 c_2_5)
Adding (at t1 c_1_5)

Checking next happening (time 4)
Deleting (at t1 c_1_5)
Adding (at t1 c_0_5)

Checking next happening (time 5)
Deleting (at t1 c_0_5)
Adding (at t1 c_0_6)

Checking next happening (time 6)
Deleting (at t1 c_0_6)
Adding (at t1 c_0_7)

Checking next happening (time 7)
Deleting (carrying t1 p1)
Adding (empty t1)
Adding (at p1 c_0_7)

Checking next happening (time 8)
Deleting (at t1 c_0_7)
Adding (at t1 c_0_8)

Checking next happening (time 9)
Deleting (at p2 c_0_8)
Deleting (empty t1)
Adding (carrying t1 p2)

Checking next happening (time 10)
Deleting (at t1 c_0_8)
Adding (at t1 c_0_7)

Checking next happening (time 11)
Deleting (at t1 c_0_7)
Adding (at t1 c_0_6)

Checking next happening (time 12)
Deleting (carrying t1 p2)
Adding (empty t1)
Adding (at p2 c_0_6)

Checking next happening (time 13)
Deleting (at t1 c_0_6)
Adding (at t1 c_0_7)

Checking next happening (time 14)
Deleting (at p1 c_0_7)
Deleting (empty t1)
Adding (carrying t1 p1)

Checking next happening (time 15)
Deleting (at t1 c_0_7)
Adding (at t1 c_0_6)

Checking next happening (time 16)
Deleting (at t1 c_0_6)
Adding (at t1 c_0_5)

Checking next happening (time 17)
Deleting (carrying t1 p1)
Adding (empty t1)
Adding (at p1 c_0_5)

Checking next happening (time 18)
Deleting (at t1 c_0_5)
Adding (at t1 c_0_6)

Checking next happening (time 19)
Deleting (at p2 c_0_6)
Deleting (empty t1)
Adding (carrying t1 p2)

Checking next happening (time 20)
Deleting (at t1 c_0_6)
Adding (at t1 c_0_5)

Checking next happening (time 21)
Deleting (at t1 c_0_5)
Adding (at t1 c_0_4)

Checking next happening (time 22)
Deleting (carrying t1 p2)
Adding (empty t1)
Adding (at p2 c_0_4)

Checking next happening (time 23)
Deleting (at t1 c_0_4)
Adding (at t1 c_0_5)

Checking next happening (time 24)
Deleting (at p1 c_0_5)
Deleting (empty t1)
Adding (carrying t1 p1)

Checking next happening (time 25)
Deleting (at t1 c_0_5)
Adding (at t1 c_0_4)

Checking next happening (time 26)
Deleting (at t1 c_0_4)
Adding (at t1 c_0_3)

Checking next happening (time 27)
Deleting (carrying t1 p1)
Adding (empty t1)
Adding (at p1 c_0_3)

Checking next happening (time 28)
Deleting (at t1 c_0_3)
Adding (at t1 c_0_4)

Checking next happening (time 29)
Deleting (at p2 c_0_4)
Deleting (empty t1)
Adding (carrying t1 p2)

Checking next happening (time 30)
Deleting (at t1 c_0_4)
Adding (at t1 c_0_3)

Checking next happening (time 31)
Deleting (at t1 c_0_3)
Adding (at t1 c_0_2)

Checking next happening (time 32)
Deleting (carrying t1 p2)
Adding (empty t1)
Adding (at p2 c_0_2)

Checking next happening (time 33)
Deleting (at t1 c_0_2)
Adding (at t1 c_0_3)

Checking next happening (time 34)
Deleting (at p1 c_0_3)
Deleting (empty t1)
Adding (carrying t1 p1)

Checking next happening (time 35)
Deleting (at t1 c_0_3)
Adding (at t1 c_0_2)

Checking next happening (time 36)
Deleting (at t1 c_0_2)
Adding (at t1 c_0_1)

Checking next happening (time 37)
Deleting (carrying t1 p1)
Adding (empty t1)
Adding (at p1 c_0_1)

Checking next happening (time 38)
Deleting (at t1 c_0_1)
Adding (at t1 c_0_2)

Checking next happening (time 39)
Deleting (at p2 c_0_2)
Deleting (empty t1)
Adding (carrying t1 p2)

Checking next happening (time 40)
Deleting (at t1 c_0_2)
Adding (at t1 c_0_1)

Checking next happening (time 41)
Deleting (at t1 c_0_1)
Adding (at t1 c_0_0)

Checking next happening (time 42)
Deleting (carrying t1 p2)
Adding (empty t1)
Adding (at p2 c_0_0)

Checking next happening (time 43)
Deleting (at t1 c_0_0)
Adding (at t1 c_0_1)

Checking next happening (time 44)
Deleting (at p1 c_0_1)
Deleting (empty t1)
Adding (carrying t1 p1)

Checking next happening (time 45)
Deleting (at t1 c_0_1)
Adding (at t1 c_0_0)

Checking next happening (time 46)
Deleting (at t1 c_0_0)
Adding (at t1 c_1_0)

Checking next happening (time 47)
Deleting (carrying t1 p1)
Adding (empty t1)
Adding (at p1 c_1_0)

Checking next happening (time 48)
Deleting (at t1 c_1_0)
Adding (at t1 c_0_0)

Checking next happening (time 49)
Deleting (at p2 c_0_0)
Deleting (empty t1)
Adding (carrying t1 p2)

Checking next happening (time 50)
Deleting (at t1 c_0_0)
Adding (at t1 c_1_0)

Checking next happening (time 51)
Deleting (at t1 c_1_0)
Adding (at t1 c_2_0)

Checking next happening (time 52)
Deleting (carrying t1 p2)
Adding (empty t1)
Adding (at p2 c_2_0)

Checking next happening (time 53)
Deleting (at t1 c_2_0)
Adding (at t1 c_1_0)

Checking next happening (time 54)
Deleting (at p1 c_1_0)
Deleting (empty t1)
Adding (carrying t1 p1)

Checking next happening (time 55)
Deleting (at t1 c_1_0)
Adding (at t1 c_2_0)

Checking next happening (time 56)
Deleting (at t1 c_2_0)
Adding (at t1 c_3_0)

Checking next happening (time 57)
Deleting (carrying t1 p1)
Adding (empty t1)
Adding (at p1 c_3_0)

Checking next happening (time 58)
Deleting (at t1 c_3_0)
Adding (at t1 c_2_0)

Checking next happening (time 59)
Deleting (at p2 c_2_0)
Deleting (empty t1)
Adding (carrying t1 p2)

Checking next happening (time 60)
Deleting (at t1 c_2_0)
Adding (at t1 c_3_0)

Checking next happening (time 61)
Deleting (at t1 c_3_0)
Adding (at t1 c_4_0)

Checking next happening (time 62)
Deleting (at t1 c_4_0)
Adding (at t1 c_5_0)

Checking next happening (time 63)
Deleting (at t1 c_5_0)
Adding (at t1 c_6_0)

Checking next happening (time 64)
Deleting (at t1 c_6_0)
Adding (at t1 c_7_0)

Checking next happening (time 65)
Deleting (at t1 c_7_0)
Adding (at t1 c_8_0)

Checking next happening (time 66)
Deleting (carrying t1 p2)
Adding (empty t1)
Adding (at p2 c_8_0)

Checking next happening (time 67)
Deleting (at t1 c_8_0)
Adding (at t1 c_7_0)

Checking next happening (time 68)
Deleting (at t1 c_7_0)
Adding (at t1 c_6_0)

Checking next happening (time 69)
Deleting (at t1 c_6_0)
Adding (at t1 c_5_0)

Checking next happening (time 70)
Deleting (at t1 c_5_0)
Adding (at t1 c_4_0)

Checking next happening (time 71)
Deleting (at t1 c_4_0)
Adding (at t1 c_3_0)

Checking next happening (time 72)
Deleting (at p1 c_3_0)
Deleting (empty t1)
Adding (carrying t1 p1)

Checking next happening (time 73)
Deleting (at t1 c_3_0)
Adding (at t1 c_4_0)

Checking next happening (time 74)
Deleting (at t1 c_4_0)
Adding (at t1 c_5_0)

Checking next happening (time 75)
Deleting (at t1 c_5_0)
Adding (at t1 c_6_0)

Checking next happening (time 76)
Deleting (at t1 c_6_0)
Adding (at t1 c_7_0)

Checking next happening (time 77)
Deleting (at t1 c_7_0)
Adding (at t1 c_8_0)

Checking next happening (time 78)
Deleting (carrying t1 p1)
Adding (empty t1)
Adding (at p1 c_8_0)
Plan executed successfully - checking goal
Plan valid
Final value: 78 

Successful plans:
Value: 78
 /home/jfan5/Safety-gen/runs/benchmark/optic/delivery_20260215_225923/delivery/optic_results/delivery_size9_packages1_seed9001.plan 78
